(declare-fun mk_ok (Int) Int)
(declare-fun mk_err (Int) Int)
(declare-fun is_ok (Int) Bool)
(declare-fun unwrap_ok (Int) Int)
(declare-fun unwrap_err (Int) Int)
(declare-fun valid (Int) Bool)
(declare-fun valid_read (Int) Bool)
(declare-fun separated (Int Int) Bool)
(assert (not (=> true true)))
(check-sat)
